3597589
0,204,191,101,4,119,96,155,7,200,125,28,203,92,81,79,229,211,212,223,138,210,16,156,126,143,25,228,178,63,46,11,37,103,90,19,35,34,26,183,61,93,71,70,162,207,188,182,214,39,100,95,219,152,51,192,114,157,24,85,72,118,217,83,57,173,194,193,68,225,22,142,78,55,53,52,189,221,187,180,172,148,149,185,170,120,1,60,227,44,43,165,21,222,59,82,137,136,195,150,209,6,66,91,40,201,98,99,104,105,127,141,76,181,147,135,196,9,64,199,97,69,176,177,198,197,45,171,130,131,140,42,215,166,123,65,17,216,89,115,67,32,108,202,179,218,174,122,124,151,208,112,113,109,175,110,213,75,145,58,10,153,88,27,33,160,80,54,87,133,224,13,226,18,190,29,36,8,106,154,49,129,77,111,86,168,169,186,23,102,20,128,12,47,5,3,107,62,146,139,117,116,50,205,167,220,158,30,206,38,132,144,163,164,14,15,2,184,121,56,94,84,159,41,31,48,134,74,73,161
